WARNING: for repeatability, setting FPU to use double precision
============================[ Problem Statistics ]=============================
|                                                                             |
|  Number of variables:          2478                                         |
|  Number of clauses:           56766                                         |
|  Parse time:                   0.01 s                                       |
|                                                                             |
c ============================[ Search Statistics ]==============================
c | Conflicts |          ORIGINAL         |          LEARNT          | Progress |
c |           |    Vars  Clauses Literals |    Limit  Clauses Lit/Cl |          |
c ===============================================================================
c Switched to VSIDS.
c Switched to LRB.
c Switched to VSIDS.
c Switched to LRB.
c Switched to VSIDS.
c Switched to LRB.
c Switched to VSIDS.
c Switched to LRB.
c Switched to VSIDS.
c Switched to LRB.
c Switched to VSIDS.
c Switched to LRB.
c Switched to VSIDS.
c Switched to LRB.
c Switched to VSIDS.
c Switched to LRB.
c Switched to VSIDS.
c Switched to LRB.
CAREFUL: the definition is falsified in conflict 7762727 at DL 14 (has happened 1 times)
c Switched to VSIDS.
c Switched to LRB.
c Switched to VSIDS.
c Switched to LRB.
c Switched to VSIDS.
c Switched to LRB.
c Switched to VSIDS.
c Switched to LRB.
c Switched to VSIDS.
c Switched to LRB.
c ===============================================================================
restarts                  : 70316
conflicts                 : 15383189       (4345 /sec)
decisions                 : 38795536       (0.00 % random) (10958 /sec)
propagations              : 4602190870     (1299949 /sec)
conflict literals         : 2021866415     (38.96 % deleted)

conflicts w/ DIP found    : 4807123        (31.25 % of conflicts)
conflicts w/ dangerous DIP: 1              (0.00 % of conflicts)
conflicts w/ DIP-learning : 134555         (0.87 % of conflicts)
decisions on ext vars     : 3742085        (9.65 % of decisions)
total ext vars            : 3956        
tried delete ext vars     : 2           
deleted ext vars          : 2           
max ext vars              : 3954        

Memory used               : 456.00 MB
CPU time                  : 3540.28 s
DIP computation time      : 90.669 s (2.56 % of total time)
ER_sel time               : 21.5248 s
ER_add time               : 0.018726 s
ER_delC time              : 0 s
ER_delV time              : 9e-05 s
ER_sub time               : 25.8469 s
ER_stat time              : 0 s

INDETERMINATE
